7,8	0,0	19,6	14,4	0,0	0,0	0,0	0,0	0,0	11,0
11,7	17,8	0,0	10,0	12,9	0,0	0,0	7,2	0,0	0,0
0,0	0,0	15,3	0,0	19,8	9,6	0,0	0,0	9,0	0,0
7,8	0,0	9,3	0,0	0,0	0,0	6,8	0,0	0,0	0,0
0,0	6,1	0,0	7,1	17,8	0,0	0,0	15,3	0,0	0,0
0,0	13,8	15,1	0,0	19,8	18,1	0,0	0,0	11,9	0,0
0,0	16,1	0,0	10,5	0,0	0,0	12,4	0,0	0,0	15,9
14,3	0,0	6,8	0,0	0,0	0,0	0,0	0,0	0,0	8,1
0,0	19,0	0,0	19,6	9,8	0,0	0,0	12,9	0,0	0,0
0,0	0,0	14,8	0,0	0,0	5,9	12,0	0,0	0,0	15,2
									
3,1	3,2	4,1	3,2	4,4	3,9	4,5	3,6	4,8	3,8
